Minimize
   z: 140 quantity_e_0_4_0 + 151 quantity_e_4_0_0 + 142 quantity_e_0_12_0 + 220 quantity_e_12_0_0 + 316 quantity_e_1_7_0 + 285 quantity_e_7_1_0 + 274 quantity_e_1_19_0 + 194 quantity_e_19_1_0 + 269 quantity_e_2_13_0 + 130 quantity_e_13_2_0 + 153 quantity_e_3_19_0 + 63 quantity_e_19_3_0 + 75 quantity_e_3_5_0 + 95 quantity_e_5_3_0 + 95 quantity_e_4_6_0 + 84 quantity_e_6_4_0 + 155 quantity_e_4_11_0 + 151 quantity_e_11_4_0 + 306 quantity_e_4_15_0 + 294 quantity_e_15_4_0 + 109 quantity_e_4_18_0 + 7 quantity_e_18_4_0 + 161 quantity_e_5_15_0 + 149 quantity_e_15_5_0 + 179 quantity_e_6_7_0 + 74 quantity_e_7_6_0 + 149 quantity_e_6_17_0 + 23 quantity_e_17_6_0 + 164 quantity_e_7_13_0 + 47 quantity_e_13_7_0 + 136 quantity_e_7_18_0 + 117 quantity_e_18_7_0 + 200 quantity_e_8_15_0 + 270 quantity_e_15_8_0 + 5 quantity_e_9_10_0 + 48 quantity_e_10_9_0 + 104 quantity_e_9_14_0 + 125 quantity_e_14_9_0 + 242 quantity_e_9_13_0 + 153 quantity_e_13_9_0 + 197 quantity_e_9_12_0 + 179 quantity_e_12_9_0 + 58 quantity_e_10_19_0 + 3 quantity_e_19_10_0 + 137 quantity_e_10_17_0 + 174 quantity_e_17_10_0 + 97 quantity_e_12_14_0 + 162 quantity_e_14_12_0 + 51 quantity_e_12_15_0 + 197 quantity_e_15_12_0 + 113 quantity_e_13_17_0 + 185 quantity_e_17_13_0 + 197 quantity_e_14_17_0 + 134 quantity_e_17_14_0 + 92 quantity_e_14_19_0 + 41 quantity_e_19_14_0 + 154 quantity_e_14_16_0 + 138 quantity_e_16_14_0 + 230 quantity_e_15_19_0 + 197 quantity_e_19_15_0 + 39 quantity_e_16_16_0 + 157 quantity_e_0_4_1 + 167 quantity_e_4_0_1 + 141 quantity_e_0_12_1 + 215 quantity_e_12_0_1 + 309 quantity_e_1_7_1 + 284 quantity_e_7_1_1 + 275 quantity_e_1_19_1 + 180 quantity_e_19_1_1 + 257 quantity_e_2_13_1 + 130 quantity_e_13_2_1 + 156 quantity_e_3_19_1 + 56 quantity_e_19_3_1 + 90 quantity_e_3_5_1 + 92 quantity_e_5_3_1 + 79 quantity_e_4_6_1 + 92 quantity_e_6_4_1 + 163 quantity_e_4_11_1 + 164 quantity_e_11_4_1 + 311 quantity_e_4_15_1 + 302 quantity_e_15_4_1 + 106 quantity_e_4_18_1 + 4 quantity_e_18_4_1 + 165 quantity_e_5_15_1 + 139 quantity_e_15_5_1 + 171 quantity_e_6_7_1 + 90 quantity_e_7_6_1 + 142 quantity_e_6_17_1 + 29 quantity_e_17_6_1 + 181 quantity_e_7_13_1 + 50 quantity_e_13_7_1 + 136 quantity_e_7_18_1 + 121 quantity_e_18_7_1 + 196 quantity_e_8_15_1 + 274 quantity_e_15_8_1 + 8 quantity_e_9_10_1 + 63 quantity_e_10_9_1 + 109 quantity_e_9_14_1 + 130 quantity_e_14_9_1 + 242 quantity_e_9_13_1 + 164 quantity_e_13_9_1 + 191 quantity_e_9_12_1 + 160 quantity_e_12_9_1 + 60 quantity_e_10_19_1 + 3 quantity_e_19_10_1 + 125 quantity_e_10_17_1 + 175 quantity_e_17_10_1 + 96 quantity_e_12_14_1 + 177 quantity_e_14_12_1 + 64 quantity_e_12_15_1 + 193 quantity_e_15_12_1 + 124 quantity_e_13_17_1 + 186 quantity_e_17_13_1 + 202 quantity_e_14_17_1 + 126 quantity_e_17_14_1 + 102 quantity_e_14_19_1 + 33 quantity_e_19_14_1 + 162 quantity_e_14_16_1 + 137 quantity_e_16_14_1 + 225 quantity_e_15_19_1 + 193 quantity_e_19_15_1 + 45 quantity_e_16_16_1
Subject to
   contraite_3_0: quantity_e_19_3_0 + quantity_e_5_3_0 - quantity_e_3_19_0 - quantity_e_3_5_0 = 0
   contraite_5_0: quantity_e_3_5_0 + quantity_e_15_5_0 - quantity_e_5_3_0 - quantity_e_5_15_0 = 0
   contraite_8_0: quantity_e_15_8_0 - quantity_e_8_15_0 = 192
   contraite_19_0: quantity_e_1_19_0 + quantity_e_3_19_0 + quantity_e_10_19_0 + quantity_e_14_19_0 + quantity_e_15_19_0 - quantity_e_19_1_0 - quantity_e_19_3_0 - quantity_e_19_10_0 - quantity_e_19_14_0 - quantity_e_19_15_0 = 0
   contraite_10_0: quantity_e_9_10_0 + quantity_e_19_10_0 + quantity_e_17_10_0 - quantity_e_10_9_0 - quantity_e_10_19_0 - quantity_e_10_17_0 = 1313
   contraite_3_1: quantity_e_19_3_1 + quantity_e_5_3_1 - quantity_e_3_19_1 - quantity_e_3_5_1 = 923
   contraite_5_1: quantity_e_3_5_1 + quantity_e_15_5_1 - quantity_e_5_3_1 - quantity_e_5_15_1 = 410
   contraite_8_1: quantity_e_15_8_1 - quantity_e_8_15_1 = 0
   contraite_19_1: quantity_e_1_19_1 + quantity_e_3_19_1 + quantity_e_10_19_1 + quantity_e_14_19_1 + quantity_e_15_19_1 - quantity_e_19_1_1 - quantity_e_19_3_1 - quantity_e_19_10_1 - quantity_e_19_14_1 - quantity_e_19_15_1 = 743
   contraite_10_1: quantity_e_9_10_1 + quantity_e_19_10_1 + quantity_e_17_10_1 - quantity_e_10_9_1 - quantity_e_10_19_1 - quantity_e_10_17_1 = 0
   contraite_11_0: quantity_e_11_4_0 - quantity_e_4_11_0 <= 162
   contraite_18_0: quantity_e_18_4_0 + quantity_e_18_7_0 - quantity_e_4_18_0 - quantity_e_7_18_0 <= 895
   contraite_6_0: quantity_e_6_4_0 + quantity_e_6_7_0 + quantity_e_6_17_0 - quantity_e_4_6_0 - quantity_e_7_6_0 - quantity_e_17_6_0 <= 449
   contraite_4_0: quantity_e_4_0_0 + quantity_e_4_6_0 + quantity_e_4_11_0 + quantity_e_4_15_0 + quantity_e_4_18_0 - quantity_e_0_4_0 - quantity_e_6_4_0 - quantity_e_11_4_0 - quantity_e_15_4_0 - quantity_e_18_4_0 <= 0
   contraite_11_1: quantity_e_11_4_1 - quantity_e_4_11_1 <= 293
   contraite_18_1: quantity_e_18_4_1 + quantity_e_18_7_1 - quantity_e_4_18_1 - quantity_e_7_18_1 <= 947
   contraite_6_1: quantity_e_6_4_1 + quantity_e_6_7_1 + quantity_e_6_17_1 - quantity_e_4_6_1 - quantity_e_7_6_1 - quantity_e_17_6_1 <= 0
   contraite_4_1: quantity_e_4_0_1 + quantity_e_4_6_1 + quantity_e_4_11_1 + quantity_e_4_15_1 + quantity_e_4_18_1 - quantity_e_0_4_1 - quantity_e_6_4_1 - quantity_e_11_4_1 - quantity_e_15_4_1 - quantity_e_18_4_1 <= 837
   contraite_0_0: quantity_e_4_0_0 + quantity_e_12_0_0 - quantity_e_0_4_0 - quantity_e_0_12_0 = 0
   contraite_1_0: quantity_e_7_1_0 + quantity_e_19_1_0 - quantity_e_1_7_0 - quantity_e_1_19_0 = 0
   contraite_2_0: quantity_e_13_2_0 - quantity_e_2_13_0 = 0
   contraite_7_0: quantity_e_1_7_0 + quantity_e_6_7_0 + quantity_e_13_7_0 + quantity_e_18_7_0 - quantity_e_7_1_0 - quantity_e_7_6_0 - quantity_e_7_13_0 - quantity_e_7_18_0 = 0
   contraite_9_0: quantity_e_10_9_0 + quantity_e_14_9_0 + quantity_e_13_9_0 + quantity_e_12_9_0 - quantity_e_9_10_0 - quantity_e_9_14_0 - quantity_e_9_13_0 - quantity_e_9_12_0 = 0
   contraite_12_0: quantity_e_0_12_0 + quantity_e_9_12_0 + quantity_e_14_12_0 + quantity_e_15_12_0 - quantity_e_12_0_0 - quantity_e_12_9_0 - quantity_e_12_14_0 - quantity_e_12_15_0 = 0
   contraite_13_0: quantity_e_2_13_0 + quantity_e_7_13_0 + quantity_e_9_13_0 + quantity_e_17_13_0 - quantity_e_13_2_0 - quantity_e_13_7_0 - quantity_e_13_9_0 - quantity_e_13_17_0 = 0
   contraite_14_0: quantity_e_9_14_0 + quantity_e_12_14_0 + quantity_e_17_14_0 + quantity_e_19_14_0 + quantity_e_16_14_0 - quantity_e_14_9_0 - quantity_e_14_12_0 - quantity_e_14_17_0 - quantity_e_14_19_0 - quantity_e_14_16_0 = 0
   contraite_15_0: quantity_e_4_15_0 + quantity_e_5_15_0 + quantity_e_8_15_0 + quantity_e_12_15_0 + quantity_e_19_15_0 - quantity_e_15_4_0 - quantity_e_15_5_0 - quantity_e_15_8_0 - quantity_e_15_12_0 - quantity_e_15_19_0 = 0
   contraite_16_0: quantity_e_14_16_0 + quantity_e_16_16_0 - quantity_e_16_14_0 - quantity_e_16_16_0 = 0
   contraite_17_0: quantity_e_6_17_0 + quantity_e_10_17_0 + quantity_e_13_17_0 + quantity_e_14_17_0 - quantity_e_17_6_0 - quantity_e_17_10_0 - quantity_e_17_13_0 - quantity_e_17_14_0 = 0
   contraite_0_1: quantity_e_4_0_1 + quantity_e_12_0_1 - quantity_e_0_4_1 - quantity_e_0_12_1 = 0
   contraite_1_1: quantity_e_7_1_1 + quantity_e_19_1_1 - quantity_e_1_7_1 - quantity_e_1_19_1 = 0
   contraite_2_1: quantity_e_13_2_1 - quantity_e_2_13_1 = 0
   contraite_7_1: quantity_e_1_7_1 + quantity_e_6_7_1 + quantity_e_13_7_1 + quantity_e_18_7_1 - quantity_e_7_1_1 - quantity_e_7_6_1 - quantity_e_7_13_1 - quantity_e_7_18_1 = 0
   contraite_9_1: quantity_e_10_9_1 + quantity_e_14_9_1 + quantity_e_13_9_1 + quantity_e_12_9_1 - quantity_e_9_10_1 - quantity_e_9_14_1 - quantity_e_9_13_1 - quantity_e_9_12_1 = 0
   contraite_12_1: quantity_e_0_12_1 + quantity_e_9_12_1 + quantity_e_14_12_1 + quantity_e_15_12_1 - quantity_e_12_0_1 - quantity_e_12_9_1 - quantity_e_12_14_1 - quantity_e_12_15_1 = 0
   contraite_13_1: quantity_e_2_13_1 + quantity_e_7_13_1 + quantity_e_9_13_1 + quantity_e_17_13_1 - quantity_e_13_2_1 - quantity_e_13_7_1 - quantity_e_13_9_1 - quantity_e_13_17_1 = 0
   contraite_14_1: quantity_e_9_14_1 + quantity_e_12_14_1 + quantity_e_17_14_1 + quantity_e_19_14_1 + quantity_e_16_14_1 - quantity_e_14_9_1 - quantity_e_14_12_1 - quantity_e_14_17_1 - quantity_e_14_19_1 - quantity_e_14_16_1 = 0
   contraite_15_1: quantity_e_4_15_1 + quantity_e_5_15_1 + quantity_e_8_15_1 + quantity_e_12_15_1 + quantity_e_19_15_1 - quantity_e_15_4_1 - quantity_e_15_5_1 - quantity_e_15_8_1 - quantity_e_15_12_1 - quantity_e_15_19_1 = 0
   contraite_16_1: quantity_e_14_16_1 + quantity_e_16_16_1 - quantity_e_16_14_1 - quantity_e_16_16_1 = 0
   contraite_17_1: quantity_e_6_17_1 + quantity_e_10_17_1 + quantity_e_13_17_1 + quantity_e_14_17_1 - quantity_e_17_6_1 - quantity_e_17_10_1 - quantity_e_17_13_1 - quantity_e_17_14_1 = 0
Integer
   quantity_e_0_4_0
   quantity_e_4_0_0
   quantity_e_0_12_0
   quantity_e_12_0_0
   quantity_e_1_7_0
   quantity_e_7_1_0
   quantity_e_1_19_0
   quantity_e_19_1_0
   quantity_e_2_13_0
   quantity_e_13_2_0
   quantity_e_3_19_0
   quantity_e_19_3_0
   quantity_e_3_5_0
   quantity_e_5_3_0
   quantity_e_4_6_0
   quantity_e_6_4_0
   quantity_e_4_11_0
   quantity_e_11_4_0
   quantity_e_4_15_0
   quantity_e_15_4_0
   quantity_e_4_18_0
   quantity_e_18_4_0
   quantity_e_5_15_0
   quantity_e_15_5_0
   quantity_e_6_7_0
   quantity_e_7_6_0
   quantity_e_6_17_0
   quantity_e_17_6_0
   quantity_e_7_13_0
   quantity_e_13_7_0
   quantity_e_7_18_0
   quantity_e_18_7_0
   quantity_e_8_15_0
   quantity_e_15_8_0
   quantity_e_9_10_0
   quantity_e_10_9_0
   quantity_e_9_14_0
   quantity_e_14_9_0
   quantity_e_9_13_0
   quantity_e_13_9_0
   quantity_e_9_12_0
   quantity_e_12_9_0
   quantity_e_10_19_0
   quantity_e_19_10_0
   quantity_e_10_17_0
   quantity_e_17_10_0
   quantity_e_12_14_0
   quantity_e_14_12_0
   quantity_e_12_15_0
   quantity_e_15_12_0
   quantity_e_13_17_0
   quantity_e_17_13_0
   quantity_e_14_17_0
   quantity_e_17_14_0
   quantity_e_14_19_0
   quantity_e_19_14_0
   quantity_e_14_16_0
   quantity_e_16_14_0
   quantity_e_15_19_0
   quantity_e_19_15_0
   quantity_e_16_16_0
   quantity_e_0_4_1
   quantity_e_4_0_1
   quantity_e_0_12_1
   quantity_e_12_0_1
   quantity_e_1_7_1
   quantity_e_7_1_1
   quantity_e_1_19_1
   quantity_e_19_1_1
   quantity_e_2_13_1
   quantity_e_13_2_1
   quantity_e_3_19_1
   quantity_e_19_3_1
   quantity_e_3_5_1
   quantity_e_5_3_1
   quantity_e_4_6_1
   quantity_e_6_4_1
   quantity_e_4_11_1
   quantity_e_11_4_1
   quantity_e_4_15_1
   quantity_e_15_4_1
   quantity_e_4_18_1
   quantity_e_18_4_1
   quantity_e_5_15_1
   quantity_e_15_5_1
   quantity_e_6_7_1
   quantity_e_7_6_1
   quantity_e_6_17_1
   quantity_e_17_6_1
   quantity_e_7_13_1
   quantity_e_13_7_1
   quantity_e_7_18_1
   quantity_e_18_7_1
   quantity_e_8_15_1
   quantity_e_15_8_1
   quantity_e_9_10_1
   quantity_e_10_9_1
   quantity_e_9_14_1
   quantity_e_14_9_1
   quantity_e_9_13_1
   quantity_e_13_9_1
   quantity_e_9_12_1
   quantity_e_12_9_1
   quantity_e_10_19_1
   quantity_e_19_10_1
   quantity_e_10_17_1
   quantity_e_17_10_1
   quantity_e_12_14_1
   quantity_e_14_12_1
   quantity_e_12_15_1
   quantity_e_15_12_1
   quantity_e_13_17_1
   quantity_e_17_13_1
   quantity_e_14_17_1
   quantity_e_17_14_1
   quantity_e_14_19_1
   quantity_e_19_14_1
   quantity_e_14_16_1
   quantity_e_16_14_1
   quantity_e_15_19_1
   quantity_e_19_15_1
   quantity_e_16_16_1
End